assets/logs/17_12x12_clingo/17_12x12_clingo.solution.log

-------------------------------------------------
|  0|102| 96|  2| 12|106|  0|  6|125|110|  0|118|
-------------------------------------------------
| 98| 92| 14|104|111|  4| 10|108|122|116|123|112|
-------------------------------------------------
| 16|107|100| 94| 13| 71|124|127|  8|  0|120|  0|
-------------------------------------------------
| 90|132|  0|109|126|113| 15| 69| 66|129|114|121|
-------------------------------------------------
|105| 18|128| 11|  0| 67| 73| 23|117| 27|  0| 70|
-------------------------------------------------
|130| 88|  3| 65| 75| 17|115| 64|131| 68|119| 29|
-------------------------------------------------
| 20|103|  9| 86|  5| 63| 21|  0| 25| 62| 72| 50|
-------------------------------------------------
| 99|  1| 59| 77| 19| 84| 58| 80| 54| 48| 31| 41|
-------------------------------------------------
| 57| 22|101|  7| 61|  0|  0| 46| 60| 39| 52| 74|
-------------------------------------------------
| 30| 97| 34| 24| 79| 44| 82| 56| 78| 85| 43| 33|
-------------------------------------------------
| 36| 55| 28| 95| 40| 51| 81| 91| 37| 47| 76| 87|
-------------------------------------------------
|  0| 32| 38| 53| 26| 93| 42| 49| 83| 89| 35| 45|
-------------------------------------------------

| n = 12 | k = 6 | coverage = 137, 95.13888888888889%
 Time 300.001
 Name 17_12x12_clingo

