assets/logs/17_12x12_clingo/17_12x12_clingo.log
clingo version 5.4.0
Reading from ...s/logs/17_12x12_clingo/knights_tour.lp ...
Solving...
Answer: 1
occ(1,3,12) occ(1,1,7) occ(1,9,7) occ(1,3,10) occ(1,5,11) occ(1,4,3) occ(2,8,2) occ(3,1,4) coverage(6)
Optimization: -6
Answer: 2
occ(1,3,12) occ(1,1,7) occ(1,9,7) occ(1,3,10) occ(1,5,11) occ(1,4,3) occ(2,8,2) occ(3,1,4) coverage(8) occ(5,2,2) occ(7,4,1) occ(4,10,1) occ(6,12,2)
Optimization: -8
Answer: 3
occ(1,3,12) occ(1,1,7) occ(1,9,7) occ(1,3,10) occ(1,5,11) occ(1,4,3) occ(2,8,2) occ(3,1,4) coverage(10) occ(5,2,2) occ(7,4,1) occ(6,5,3) occ(4,6,1) occ(9,6,2) occ(8,7,2)
Optimization: -10
Answer: 4
occ(1,3,12) occ(1,1,7) occ(1,9,7) occ(1,3,10) occ(1,5,11) occ(1,4,3) occ(2,8,2) occ(3,1,4) coverage(12) occ(5,2,2) occ(7,4,1) occ(6,5,3) occ(4,6,1) occ(9,6,2) occ(8,7,2) occ(11,8,1) occ(10,9,1)
Optimization: -12
Answer: 5
occ(1,3,12) occ(1,1,7) occ(1,9,7) occ(1,3,10) occ(1,5,11) occ(1,4,3) occ(2,8,2) occ(3,1,4) coverage(60) occ(41,1,9) occ(56,1,10) occ(119,1,8) occ(123,1,6) occ(129,1,3) occ(139,1,2) occ(37,2,6) occ(43,2,11) occ(58,2,12) occ(97,2,10) occ(111,2,5) occ(115,2,7) occ(125,2,4) occ(131,2,1) occ(135,2,3) occ(5,3,5) occ(35,3,4) occ(39,3,8) occ(54,3,11) occ(109,3,3) occ(117,3,9) occ(121,3,7) occ(127,3,2) occ(137,3,1) occ(7,4,7) occ(45,4,10) occ(89,4,12) occ(95,4,11) occ(99,4,9) occ(103,4,5) occ(107,4,1) occ(113,4,6) occ(133,4,2) occ(33,5,5) occ(52,5,12) occ(91,5,10) occ(101,5,7) occ(105,5,3) occ(4,6,3) occ(9,6,8) occ(26,6,10) occ(29,6,4) occ(47,6,9) occ(87,6,11) occ(93,6,12) occ(8,7,2) occ(11,7,10) occ(30,7,7) occ(31,7,6) occ(50,7,11) occ(73,7,3) occ(85,7,9) occ(6,8,4) occ(24,8,11) occ(27,8,5) occ(28,8,9) occ(36,8,7) occ(49,8,8) occ(75,8,1) occ(10,9,1) occ(13,9,11) occ(32,9,6) occ(38,9,9) occ(48,9,12) occ(71,9,2) occ(77,9,3) occ(83,9,8) occ(17,10,10) occ(22,10,12) occ(25,10,6) occ(34,10,8) occ(40,10,11) occ(44,10,9) occ(51,10,7) occ(55,10,3) occ(59,10,1) occ(65,10,4) occ(79,10,5) occ(12,11,2) occ(15,11,12) occ(16,11,6) occ(20,11,10) occ(21,11,9) occ(46,11,11) occ(53,11,5) occ(61,11,3) occ(69,11,1) occ(81,11,7) occ(14,12,4) occ(18,12,8) occ(19,12,11) occ(23,12,7) occ(42,12,10) occ(57,12,2) occ(63,12,5) occ(67,12,3)
Optimization: -60
Answer: 6
occ(1,3,12) occ(1,1,7) occ(1,9,7) occ(1,3,10) occ(1,5,11) occ(1,4,3) occ(2,8,2) occ(3,1,4) coverage(62) occ(41,1,9) occ(119,1,8) occ(123,1,6) occ(129,1,3) occ(139,1,2) occ(37,2,6) occ(43,2,11) occ(56,2,9) occ(97,2,10) occ(111,2,5) occ(115,2,7) occ(125,2,4) occ(131,2,1) occ(135,2,3) occ(5,3,5) occ(35,3,4) occ(39,3,8) occ(54,3,11) occ(60,3,6) occ(109,3,3) occ(117,3,9) occ(121,3,7) occ(127,3,2) occ(137,3,1) occ(7,4,7) occ(45,4,10) occ(58,4,8) occ(89,4,12) occ(95,4,11) occ(99,4,9) occ(103,4,5) occ(107,4,1) occ(113,4,6) occ(133,4,2) occ(33,5,5) occ(52,5,12) occ(91,5,10) occ(101,5,7) occ(105,5,3) occ(4,6,3) occ(9,6,8) occ(26,6,10) occ(29,6,4) occ(47,6,9) occ(87,6,11) occ(93,6,12) occ(8,7,2) occ(11,7,10) occ(30,7,7) occ(31,7,6) occ(50,7,11) occ(73,7,3) occ(85,7,9) occ(6,8,4) occ(24,8,11) occ(27,8,5) occ(28,8,9) occ(36,8,7) occ(49,8,8) occ(75,8,1) occ(10,9,1) occ(13,9,11) occ(32,9,6) occ(38,9,9) occ(48,9,12) occ(71,9,2) occ(77,9,3) occ(83,9,8) occ(17,10,10) occ(22,10,12) occ(25,10,6) occ(34,10,8) occ(40,10,11) occ(44,10,9) occ(51,10,7) occ(55,10,3) occ(59,10,1) occ(65,10,4) occ(79,10,5) occ(12,11,2) occ(15,11,12) occ(16,11,6) occ(20,11,10) occ(21,11,9) occ(46,11,11) occ(53,11,5) occ(61,11,3) occ(69,11,1) occ(81,11,7) occ(14,12,4) occ(18,12,8) occ(19,12,11) occ(23,12,7) occ(42,12,10) occ(57,12,2) occ(63,12,5) occ(67,12,3)
Optimization: -62
Answer: 7
occ(1,3,12) occ(1,1,7) occ(1,9,7) occ(1,3,10) occ(1,5,11) occ(1,4,3) occ(2,8,2) occ(3,1,4) coverage(64) occ(41,1,9) occ(62,1,5) occ(119,1,8) occ(123,1,6) occ(129,1,3) occ(139,1,2) occ(37,2,6) occ(43,2,11) occ(56,2,9) occ(97,2,10) occ(111,2,5) occ(115,2,7) occ(125,2,4) occ(131,2,1) occ(135,2,3) occ(5,3,5) occ(35,3,4) occ(39,3,8) occ(54,3,11) occ(60,3,6) occ(109,3,3) occ(117,3,9) occ(121,3,7) occ(127,3,2) occ(137,3,1) occ(7,4,7) occ(45,4,10) occ(58,4,8) occ(89,4,12) occ(95,4,11) occ(99,4,9) occ(103,4,5) occ(107,4,1) occ(113,4,6) occ(133,4,2) occ(33,5,5) occ(52,5,12) occ(91,5,10) occ(101,5,7) occ(105,5,3) occ(4,6,3) occ(9,6,8) occ(26,6,10) occ(29,6,4) occ(47,6,9) occ(87,6,11) occ(93,6,12) occ(8,7,2) occ(11,7,10) occ(30,7,7) occ(31,7,6) occ(50,7,11) occ(73,7,3) occ(85,7,9) occ(6,8,4) occ(24,8,11) occ(27,8,5) occ(28,8,9) occ(36,8,7) occ(49,8,8) occ(75,8,1) occ(10,9,1) occ(13,9,11) occ(32,9,6) occ(38,9,9) occ(48,9,12) occ(71,9,2) occ(77,9,3) occ(83,9,8) occ(17,10,10) occ(22,10,12) occ(25,10,6) occ(34,10,8) occ(40,10,11) occ(44,10,9) occ(51,10,7) occ(55,10,3) occ(59,10,1) occ(65,10,4) occ(79,10,5) occ(12,11,2) occ(15,11,12) occ(16,11,6) occ(20,11,10) occ(21,11,9) occ(46,11,11) occ(53,11,5) occ(61,11,3) occ(69,11,1) occ(81,11,7) occ(14,12,4) occ(18,12,8) occ(19,12,11) occ(23,12,7) occ(42,12,10) occ(57,12,2) occ(63,12,5) occ(67,12,3)
Optimization: -64
Answer: 8
occ(1,3,12) occ(1,1,7) occ(1,9,7) occ(1,3,10) occ(1,5,11) occ(1,4,3) occ(2,8,2) occ(3,1,4) coverage(66) occ(41,1,9) occ(64,1,10) occ(119,1,8) occ(123,1,6) occ(129,1,3) occ(139,1,2) occ(37,2,6) occ(43,2,11) occ(56,2,9) occ(62,2,8) occ(97,2,10) occ(111,2,5) occ(115,2,7) occ(125,2,4) occ(131,2,1) occ(135,2,3) occ(5,3,5) occ(35,3,4) occ(39,3,8) occ(54,3,11) occ(60,3,6) occ(109,3,3) occ(117,3,9) occ(121,3,7) occ(127,3,2) occ(137,3,1) occ(7,4,7) occ(45,4,10) occ(58,4,8) occ(89,4,12) occ(95,4,11) occ(99,4,9) occ(103,4,5) occ(107,4,1) occ(113,4,6) occ(133,4,2) occ(33,5,5) occ(52,5,12) occ(91,5,10) occ(101,5,7) occ(105,5,3) occ(4,6,3) occ(9,6,8) occ(26,6,10) occ(29,6,4) occ(47,6,9) occ(87,6,11) occ(93,6,12) occ(8,7,2) occ(11,7,10) occ(30,7,7) occ(31,7,6) occ(50,7,11) occ(73,7,3) occ(85,7,9) occ(6,8,4) occ(24,8,11) occ(27,8,5) occ(28,8,9) occ(36,8,7) occ(49,8,8) occ(75,8,1) occ(10,9,1) occ(13,9,11) occ(32,9,6) occ(38,9,9) occ(48,9,12) occ(71,9,2) occ(77,9,3) occ(83,9,8) occ(17,10,10) occ(22,10,12) occ(25,10,6) occ(34,10,8) occ(40,10,11) occ(44,10,9) occ(51,10,7) occ(55,10,3) occ(59,10,1) occ(65,10,4) occ(79,10,5) occ(12,11,2) occ(15,11,12) occ(16,11,6) occ(20,11,10) occ(21,11,9) occ(46,11,11) occ(53,11,5) occ(61,11,3) occ(69,11,1) occ(81,11,7) occ(14,12,4) occ(18,12,8) occ(19,12,11) occ(23,12,7) occ(42,12,10) occ(57,12,2) occ(63,12,5) occ(67,12,3)
Optimization: -66
Answer: 9
occ(1,3,12) occ(1,1,7) occ(1,9,7) occ(1,3,10) occ(1,5,11) occ(1,4,3) occ(2,8,2) occ(3,1,4) coverage(68) occ(41,1,9) occ(64,1,10) occ(119,1,8) occ(123,1,6) occ(129,1,3) occ(139,1,2) occ(37,2,6) occ(43,2,11) occ(56,2,9) occ(62,2,8) occ(66,2,12) occ(97,2,10) occ(111,2,5) occ(115,2,7) occ(125,2,4) occ(131,2,1) occ(135,2,3) occ(5,3,5) occ(35,3,4) occ(39,3,8) occ(54,3,11) occ(60,3,6) occ(109,3,3) occ(117,3,9) occ(121,3,7) occ(127,3,2) occ(137,3,1) occ(7,4,7) occ(45,4,10) occ(58,4,8) occ(89,4,12) occ(95,4,11) occ(99,4,9) occ(103,4,5) occ(107,4,1) occ(113,4,6) occ(133,4,2) occ(33,5,5) occ(52,5,12) occ(91,5,10) occ(101,5,7) occ(105,5,3) occ(4,6,3) occ(9,6,8) occ(26,6,10) occ(29,6,4) occ(47,6,9) occ(87,6,11) occ(93,6,12) occ(8,7,2) occ(11,7,10) occ(30,7,7) occ(31,7,6) occ(50,7,11) occ(73,7,3) occ(85,7,9) occ(6,8,4) occ(24,8,11) occ(27,8,5) occ(28,8,9) occ(36,8,7) occ(49,8,8) occ(75,8,1) occ(10,9,1) occ(13,9,11) occ(32,9,6) occ(38,9,9) occ(48,9,12) occ(71,9,2) occ(77,9,3) occ(83,9,8) occ(17,10,10) occ(22,10,12) occ(25,10,6) occ(34,10,8) occ(40,10,11) occ(44,10,9) occ(51,10,7) occ(55,10,3) occ(59,10,1) occ(65,10,4) occ(79,10,5) occ(12,11,2) occ(15,11,12) occ(16,11,6) occ(20,11,10) occ(21,11,9) occ(46,11,11) occ(53,11,5) occ(61,11,3) occ(69,11,1) occ(81,11,7) occ(14,12,4) occ(18,12,8) occ(19,12,11) occ(23,12,7) occ(42,12,10) occ(57,12,2) occ(63,12,5) occ(67,12,3)
Optimization: -68
Answer: 10
occ(1,3,12) occ(1,1,7) occ(1,9,7) occ(1,3,10) occ(1,5,11) occ(1,4,3) occ(2,8,2) occ(3,1,4) coverage(70) occ(41,1,9) occ(119,1,8) occ(123,1,6) occ(129,1,3) occ(139,1,2) occ(37,2,6) occ(43,2,11) occ(56,2,9) occ(97,2,10) occ(111,2,5) occ(115,2,7) occ(125,2,4) occ(131,2,1) occ(135,2,3) occ(5,3,5) occ(35,3,4) occ(39,3,8) occ(54,3,11) occ(60,3,6) occ(109,3,3) occ(117,3,9) occ(121,3,7) occ(127,3,2) occ(137,3,1) occ(7,4,7) occ(45,4,10) occ(58,4,8) occ(62,4,4) occ(89,4,12) occ(95,4,11) occ(99,4,9) occ(103,4,5) occ(107,4,1) occ(113,4,6) occ(133,4,2) occ(33,5,5) occ(52,5,12) occ(64,5,2) occ(91,5,10) occ(101,5,7) occ(105,5,3) occ(4,6,3) occ(9,6,8) occ(26,6,10) occ(29,6,4) occ(47,6,9) occ(87,6,11) occ(93,6,12) occ(8,7,2) occ(11,7,10) occ(30,7,7) occ(31,7,6) occ(50,7,11) occ(66,7,1) occ(73,7,3) occ(85,7,9) occ(6,8,4) occ(24,8,11) occ(27,8,5) occ(28,8,9) occ(36,8,7) occ(49,8,8) occ(68,8,3) occ(75,8,1) occ(10,9,1) occ(13,9,11) occ(32,9,6) occ(38,9,9) occ(48,9,12) occ(71,9,2) occ(77,9,3) occ(83,9,8) occ(17,10,10) occ(22,10,12) occ(25,10,6) occ(34,10,8) occ(40,10,11) occ(44,10,9) occ(51,10,7) occ(55,10,3) occ(59,10,1) occ(65,10,4) occ(79,10,5) occ(12,11,2) occ(15,11,12) occ(16,11,6) occ(20,11,10) occ(21,11,9) occ(46,11,11) occ(53,11,5) occ(61,11,3) occ(69,11,1) occ(81,11,7) occ(14,12,4) occ(18,12,8) occ(19,12,11) occ(23,12,7) occ(42,12,10) occ(57,12,2) occ(63,12,5) occ(67,12,3)
Optimization: -70
Answer: 11
occ(1,3,12) occ(1,1,7) occ(1,9,7) occ(1,3,10) occ(1,5,11) occ(1,4,3) occ(2,8,2) occ(3,1,4) coverage(72) occ(41,1,9) occ(64,1,10) occ(119,1,8) occ(123,1,6) occ(129,1,3) occ(139,1,2) occ(37,2,6) occ(43,2,11) occ(62,2,8) occ(97,2,10) occ(111,2,5) occ(115,2,7) occ(125,2,4) occ(131,2,1) occ(135,2,3) occ(5,3,5) occ(35,3,4) occ(39,3,8) occ(60,3,6) occ(66,3,11) occ(109,3,3) occ(117,3,9) occ(121,3,7) occ(127,3,2) occ(137,3,1) occ(7,4,7) occ(45,4,10) occ(58,4,8) occ(89,4,12) occ(95,4,11) occ(99,4,9) occ(103,4,5) occ(107,4,1) occ(113,4,6) occ(133,4,2) occ(33,5,5) occ(68,5,12) occ(91,5,10) occ(101,5,7) occ(105,5,3) occ(4,6,3) occ(9,6,8) occ(26,6,10) occ(29,6,4) occ(47,6,9) occ(56,6,7) occ(87,6,11) occ(93,6,12) occ(8,7,2) occ(11,7,10) occ(30,7,7) occ(31,7,6) occ(52,7,8) occ(70,7,11) occ(73,7,3) occ(85,7,9) occ(6,8,4) occ(24,8,11) occ(27,8,5) occ(28,8,9) occ(36,8,7) occ(49,8,8) occ(50,8,10) occ(54,8,6) occ(75,8,1) occ(10,9,1) occ(13,9,11) occ(32,9,6) occ(38,9,9) occ(48,9,12) occ(71,9,2) occ(77,9,3) occ(83,9,8) occ(17,10,10) occ(22,10,12) occ(25,10,6) occ(34,10,8) occ(40,10,11) occ(44,10,9) occ(51,10,7) occ(55,10,3) occ(59,10,1) occ(65,10,4) occ(79,10,5) occ(12,11,2) occ(15,11,12) occ(16,11,6) occ(20,11,10) occ(21,11,9) occ(46,11,11) occ(53,11,5) occ(61,11,3) occ(69,11,1) occ(81,11,7) occ(14,12,4) occ(18,12,8) occ(19,12,11) occ(23,12,7) occ(42,12,10) occ(57,12,2) occ(63,12,5) occ(67,12,3)
Optimization: -72
Answer: 12
occ(1,3,12) occ(1,1,7) occ(1,9,7) occ(1,3,10) occ(1,5,11) occ(1,4,3) occ(2,8,2) occ(3,1,4) coverage(73) occ(35,1,12) occ(41,1,9) occ(47,1,8) occ(51,1,6) occ(57,1,1) occ(61,1,3) occ(5,2,6) occ(9,2,8) occ(37,2,10) occ(43,2,11) occ(55,2,3) occ(33,3,11) occ(39,3,8) occ(45,3,9) occ(49,3,7) occ(53,3,5) occ(59,3,2) occ(60,3,6) occ(63,3,4) occ(7,4,7) occ(11,4,9) occ(29,4,12) occ(58,4,8) occ(62,4,4) occ(78,4,10) occ(130,4,2) occ(26,5,3) occ(31,5,10) occ(32,5,6) occ(54,5,7) occ(64,5,2) occ(65,5,5) occ(76,5,8) occ(80,5,12) occ(98,5,9) occ(128,5,4) occ(13,6,10) occ(27,6,11) occ(28,6,5) occ(34,6,8) occ(56,6,9) occ(67,6,3) occ(70,6,2) occ(74,6,6) occ(100,6,7) occ(132,6,1) occ(24,7,2) occ(25,7,9) occ(30,7,7) occ(52,7,6) occ(66,7,1) occ(72,7,4) occ(82,7,11) occ(88,7,10) occ(92,7,12) occ(96,7,8) occ(126,7,5) occ(8,8,5) occ(15,8,9) occ(23,8,11) occ(36,8,7) occ(68,8,3) occ(69,8,4) occ(86,8,12) occ(94,8,10) occ(102,8,6) occ(6,9,3) occ(22,9,1) occ(50,9,5) occ(71,9,2) occ(84,9,10) occ(90,9,11) occ(104,9,4) occ(114,9,9) occ(120,9,8) occ(124,9,6) occ(4,10,1) occ(10,10,6) occ(16,10,5) occ(17,10,10) occ(21,10,12) occ(38,10,8) occ(42,10,4) occ(48,10,7) occ(106,10,2) occ(116,10,11) occ(14,11,3) occ(20,11,2) occ(40,11,6) occ(46,11,5) occ(108,11,4) occ(112,11,8) occ(118,11,9) occ(122,11,7) occ(12,12,5) occ(18,12,4) occ(19,12,11) occ(44,12,3) occ(110,12,6)
Optimization: -73
Answer: 13
occ(1,3,12) occ(1,1,7) occ(1,9,7) occ(1,3,10) occ(1,5,11) occ(1,4,3) occ(2,8,2) occ(3,1,4) coverage(77) occ(35,1,12) occ(41,1,9) occ(47,1,8) occ(51,1,6) occ(57,1,1) occ(73,1,3) occ(5,2,6) occ(9,2,8) occ(37,2,10) occ(43,2,11) occ(55,2,3) occ(71,2,5) occ(75,2,1) occ(33,3,11) occ(39,3,8) occ(45,3,9) occ(49,3,7) occ(53,3,5) occ(59,3,2) occ(60,3,6) occ(67,3,4) occ(7,4,7) occ(11,4,9) occ(29,4,12) occ(58,4,8) occ(62,4,4) occ(69,4,6) occ(78,4,10) occ(130,4,2) occ(26,5,3) occ(31,5,10) occ(32,5,6) occ(54,5,7) occ(61,5,1) occ(64,5,2) occ(65,5,5) occ(76,5,8) occ(80,5,12) occ(98,5,9) occ(128,5,4) occ(13,6,10) occ(27,6,11) occ(28,6,5) occ(34,6,8) occ(56,6,9) occ(63,6,3) occ(70,6,2) occ(74,6,6) occ(100,6,7) occ(132,6,1) occ(24,7,2) occ(25,7,9) occ(30,7,7) occ(52,7,6) occ(66,7,1) occ(72,7,4) occ(82,7,11) occ(88,7,10) occ(92,7,12) occ(96,7,8) occ(126,7,5) occ(8,8,5) occ(15,8,9) occ(23,8,11) occ(36,8,7) occ(68,8,3) occ(86,8,12) occ(94,8,10) occ(102,8,6) occ(6,9,3) occ(22,9,1) occ(50,9,5) occ(84,9,10) occ(90,9,11) occ(104,9,4) occ(114,9,9) occ(120,9,8) occ(124,9,6) occ(4,10,1) occ(10,10,6) occ(16,10,5) occ(17,10,10) occ(21,10,12) occ(38,10,8) occ(42,10,4) occ(48,10,7) occ(106,10,2) occ(116,10,11) occ(14,11,3) occ(20,11,2) occ(40,11,6) occ(46,11,5) occ(108,11,4) occ(112,11,8) occ(118,11,9) occ(122,11,7) occ(12,12,5) occ(18,12,4) occ(19,12,11) occ(44,12,3) occ(110,12,6)
Optimization: -77
Answer: 14
occ(1,3,12) occ(1,1,7) occ(1,9,7) occ(1,3,10) occ(1,5,11) occ(1,4,3) occ(2,8,2) occ(3,1,4) coverage(87) occ(35,1,12) occ(41,1,9) occ(47,1,8) occ(51,1,6) occ(57,1,1) occ(73,1,3) occ(83,1,2) occ(5,2,6) occ(9,2,8) occ(37,2,10) occ(43,2,11) occ(55,2,3) occ(71,2,5) occ(75,2,1) occ(81,2,4) occ(33,3,11) occ(39,3,8) occ(45,3,9) occ(49,3,7) occ(53,3,5) occ(59,3,2) occ(60,3,6) occ(67,3,4) occ(77,3,3) occ(85,3,1) occ(7,4,7) occ(11,4,9) occ(29,4,12) occ(58,4,8) occ(62,4,4) occ(69,4,6) occ(78,4,10) occ(79,4,5) occ(130,4,2) occ(26,5,3) occ(31,5,10) occ(32,5,6) occ(54,5,7) occ(61,5,1) occ(64,5,2) occ(65,5,5) occ(76,5,8) occ(80,5,12) occ(98,5,9) occ(128,5,4) occ(13,6,10) occ(27,6,11) occ(28,6,5) occ(34,6,8) occ(56,6,9) occ(63,6,3) occ(70,6,2) occ(74,6,6) occ(100,6,7) occ(132,6,1) occ(24,7,2) occ(25,7,9) occ(30,7,7) occ(52,7,6) occ(66,7,1) occ(72,7,4) occ(82,7,11) occ(88,7,10) occ(92,7,12) occ(96,7,8) occ(126,7,5) occ(8,8,5) occ(15,8,9) occ(23,8,11) occ(36,8,7) occ(68,8,3) occ(86,8,12) occ(94,8,10) occ(102,8,6) occ(6,9,3) occ(22,9,1) occ(50,9,5) occ(84,9,10) occ(90,9,11) occ(104,9,4) occ(114,9,9) occ(120,9,8) occ(124,9,6) occ(4,10,1) occ(10,10,6) occ(16,10,5) occ(17,10,10) occ(21,10,12) occ(38,10,8) occ(42,10,4) occ(48,10,7) occ(106,10,2) occ(116,10,11) occ(14,11,3) occ(20,11,2) occ(40,11,6) occ(46,11,5) occ(108,11,4) occ(112,11,8) occ(118,11,9) occ(122,11,7) occ(12,12,5) occ(18,12,4) occ(19,12,11) occ(44,12,3) occ(110,12,6)
Optimization: -87
Answer: 15
occ(1,3,12) occ(1,1,7) occ(1,9,7) occ(1,3,10) occ(1,5,11) occ(1,4,3) occ(2,8,2) occ(3,1,4) coverage(95) occ(35,1,12) occ(41,1,9) occ(47,1,8) occ(51,1,6) occ(57,1,5) occ(73,1,3) occ(83,1,2) occ(89,1,1) occ(5,2,6) occ(9,2,8) occ(37,2,10) occ(43,2,11) occ(55,2,7) occ(71,2,5) occ(75,2,1) occ(81,2,4) occ(87,2,3) occ(33,3,11) occ(39,3,8) occ(45,3,9) occ(49,3,7) occ(53,3,5) occ(59,3,6) occ(67,3,4) occ(77,3,3) occ(85,3,1) occ(91,3,2) occ(7,4,7) occ(11,4,9) occ(29,4,12) occ(61,4,4) occ(69,4,6) occ(78,4,10) occ(79,4,5) occ(130,4,2) occ(26,5,3) occ(31,5,10) occ(32,5,6) occ(64,5,2) occ(65,5,5) occ(76,5,8) occ(80,5,12) occ(93,5,1) occ(98,5,9) occ(128,5,4) occ(13,6,10) occ(27,6,11) occ(28,6,5) occ(34,6,8) occ(63,6,3) occ(70,6,2) occ(74,6,6) occ(100,6,7) occ(132,6,1) occ(24,7,2) occ(25,7,9) occ(30,7,7) occ(52,7,6) occ(62,7,3) occ(66,7,1) occ(72,7,4) occ(82,7,11) occ(88,7,10) occ(92,7,12) occ(96,7,8) occ(126,7,5) occ(8,8,5) occ(15,8,9) occ(23,8,11) occ(36,8,7) occ(54,8,4) occ(68,8,3) occ(86,8,12) occ(94,8,10) occ(102,8,6) occ(6,9,3) occ(22,9,1) occ(50,9,5) occ(60,9,2) occ(84,9,10) occ(90,9,11) occ(104,9,4) occ(114,9,9) occ(120,9,8) occ(124,9,6) occ(4,10,1) occ(10,10,6) occ(16,10,5) occ(17,10,10) occ(21,10,12) occ(38,10,8) occ(42,10,4) occ(48,10,7) occ(56,10,3) occ(106,10,2) occ(116,10,11) occ(14,11,3) occ(20,11,2) occ(40,11,6) occ(46,11,5) occ(58,11,1) occ(108,11,4) occ(112,11,8) occ(118,11,9) occ(122,11,7) occ(12,12,5) occ(18,12,4) occ(19,12,11) occ(44,12,3) occ(110,12,6)
Optimization: -95
Answer: 16
occ(1,3,12) occ(1,1,7) occ(1,9,7) occ(1,3,10) occ(1,5,11) occ(1,4,3) occ(2,8,2) occ(3,1,4) coverage(105) occ(7,1,6) occ(35,1,12) occ(43,1,10) occ(51,1,8) occ(73,1,3) occ(83,1,2) occ(89,1,5) occ(93,1,9) occ(9,2,8) occ(37,2,10) occ(41,2,12) occ(49,2,6) occ(55,2,9) occ(71,2,5) occ(75,2,1) occ(81,2,4) occ(87,2,3) occ(91,2,7) occ(5,3,5) occ(33,3,11) occ(45,3,9) occ(53,3,7) occ(59,3,6) occ(67,3,4) occ(77,3,3) occ(85,3,1) occ(95,3,8) occ(11,4,9) occ(29,4,12) occ(39,4,11) occ(47,4,7) occ(57,4,8) occ(61,4,4) occ(69,4,6) occ(78,4,10) occ(79,4,5) occ(130,4,2) occ(26,5,3) occ(31,5,10) occ(32,5,6) occ(64,5,2) occ(65,5,5) occ(76,5,8) occ(80,5,12) occ(97,5,7) occ(98,5,9) occ(128,5,4) occ(13,6,10) occ(27,6,11) occ(28,6,5) occ(34,6,8) occ(63,6,3) occ(70,6,2) occ(74,6,6) occ(99,6,9) occ(100,6,7) occ(132,6,1) occ(24,7,2) occ(25,7,9) occ(30,7,7) occ(52,7,6) occ(62,7,3) occ(66,7,1) occ(72,7,4) occ(82,7,11) occ(88,7,10) occ(92,7,12) occ(96,7,8) occ(126,7,5) occ(8,8,5) occ(15,8,9) occ(23,8,11) occ(36,8,7) occ(54,8,4) occ(68,8,3) occ(86,8,12) occ(94,8,10) occ(101,8,8) occ(102,8,6) occ(6,9,3) occ(22,9,1) occ(50,9,5) occ(60,9,2) occ(84,9,10) occ(90,9,11) occ(104,9,4) occ(114,9,9) occ(120,9,8) occ(124,9,6) occ(4,10,1) occ(10,10,6) occ(16,10,5) occ(17,10,10) occ(21,10,12) occ(38,10,8) occ(42,10,4) occ(48,10,7) occ(56,10,3) occ(103,10,9) occ(106,10,2) occ(116,10,11) occ(14,11,3) occ(20,11,2) occ(40,11,6) occ(46,11,5) occ(58,11,1) occ(108,11,4) occ(112,11,8) occ(118,11,9) occ(122,11,7) occ(12,12,5) occ(18,12,4) occ(19,12,11) occ(44,12,3) occ(110,12,6)
Optimization: -105
Answer: 17
occ(1,3,12) occ(1,1,7) occ(1,9,7) occ(1,3,10) occ(1,5,11) occ(1,4,3) occ(2,8,2) occ(3,1,4) coverage(107) occ(7,1,6) occ(35,1,12) occ(43,1,10) occ(51,1,8) occ(73,1,3) occ(83,1,2) occ(89,1,5) occ(93,1,9) occ(9,2,8) occ(37,2,10) occ(41,2,12) occ(49,2,6) occ(55,2,9) occ(71,2,5) occ(75,2,1) occ(81,2,4) occ(87,2,3) occ(91,2,7) occ(5,3,5) occ(33,3,11) occ(45,3,9) occ(53,3,7) occ(59,3,6) occ(67,3,4) occ(77,3,3) occ(85,3,1) occ(95,3,8) occ(11,4,9) occ(29,4,12) occ(39,4,11) occ(47,4,7) occ(57,4,8) occ(61,4,4) occ(69,4,6) occ(78,4,10) occ(79,4,5) occ(130,4,2) occ(26,5,3) occ(31,5,10) occ(32,5,6) occ(64,5,2) occ(65,5,5) occ(76,5,8) occ(80,5,12) occ(97,5,7) occ(98,5,9) occ(128,5,4) occ(13,6,10) occ(27,6,11) occ(28,6,5) occ(34,6,8) occ(63,6,3) occ(70,6,2) occ(74,6,6) occ(99,6,9) occ(100,6,7) occ(132,6,1) occ(24,7,2) occ(25,7,9) occ(30,7,7) occ(52,7,6) occ(62,7,3) occ(66,7,1) occ(72,7,4) occ(82,7,11) occ(88,7,10) occ(92,7,12) occ(96,7,8) occ(126,7,5) occ(8,8,5) occ(15,8,9) occ(23,8,11) occ(36,8,7) occ(54,8,4) occ(68,8,3) occ(86,8,12) occ(94,8,10) occ(101,8,8) occ(102,8,6) occ(6,9,3) occ(22,9,1) occ(50,9,5) occ(60,9,2) occ(84,9,10) occ(90,9,11) occ(104,9,4) occ(114,9,9) occ(120,9,8) occ(124,9,6) occ(4,10,1) occ(10,10,6) occ(16,10,5) occ(17,10,10) occ(21,10,12) occ(38,10,8) occ(42,10,4) occ(48,10,7) occ(56,10,3) occ(103,10,9) occ(106,10,2) occ(116,10,11) occ(14,11,3) occ(20,11,2) occ(40,11,6) occ(46,11,5) occ(58,11,1) occ(105,11,11) occ(108,11,4) occ(112,11,8) occ(118,11,9) occ(122,11,7) occ(12,12,5) occ(18,12,4) occ(19,12,11) occ(44,12,3) occ(110,12,6)
Optimization: -107
Answer: 18
occ(1,3,12) occ(1,1,7) occ(1,9,7) occ(1,3,10) occ(1,5,11) occ(1,4,3) occ(2,8,2) occ(3,1,4) coverage(109) occ(7,1,6) occ(35,1,12) occ(43,1,10) occ(51,1,8) occ(73,1,3) occ(83,1,2) occ(89,1,5) occ(93,1,9) occ(9,2,8) occ(37,2,10) occ(41,2,12) occ(49,2,6) occ(55,2,9) occ(71,2,5) occ(75,2,1) occ(81,2,4) occ(87,2,3) occ(91,2,7) occ(5,3,5) occ(33,3,11) occ(45,3,9) occ(53,3,7) occ(59,3,6) occ(67,3,4) occ(77,3,3) occ(85,3,1) occ(95,3,8) occ(11,4,9) occ(29,4,12) occ(39,4,11) occ(47,4,7) occ(57,4,8) occ(61,4,4) occ(69,4,6) occ(78,4,10) occ(79,4,5) occ(130,4,2) occ(26,5,3) occ(31,5,10) occ(32,5,6) occ(64,5,2) occ(65,5,5) occ(76,5,8) occ(80,5,12) occ(97,5,7) occ(98,5,9) occ(128,5,4) occ(13,6,10) occ(27,6,11) occ(28,6,5) occ(34,6,8) occ(63,6,3) occ(70,6,2) occ(74,6,6) occ(99,6,9) occ(100,6,7) occ(132,6,1) occ(24,7,2) occ(25,7,9) occ(30,7,7) occ(52,7,6) occ(62,7,3) occ(66,7,1) occ(72,7,4) occ(82,7,11) occ(88,7,10) occ(92,7,12) occ(96,7,8) occ(126,7,5) occ(8,8,5) occ(15,8,9) occ(23,8,11) occ(36,8,7) occ(54,8,4) occ(68,8,3) occ(86,8,12) occ(94,8,10) occ(101,8,8) occ(102,8,6) occ(6,9,3) occ(22,9,1) occ(50,9,5) occ(60,9,2) occ(84,9,10) occ(90,9,11) occ(104,9,4) occ(114,9,9) occ(120,9,8) occ(124,9,6) occ(4,10,1) occ(10,10,6) occ(16,10,5) occ(17,10,10) occ(21,10,12) occ(38,10,8) occ(42,10,4) occ(48,10,7) occ(56,10,3) occ(103,10,9) occ(106,10,2) occ(116,10,11) occ(14,11,3) occ(20,11,2) occ(40,11,6) occ(46,11,5) occ(58,11,1) occ(107,11,12) occ(108,11,4) occ(112,11,8) occ(118,11,9) occ(122,11,7) occ(12,12,5) occ(18,12,4) occ(19,12,11) occ(44,12,3) occ(105,12,10) occ(110,12,6)
Optimization: -109
Answer: 19
occ(1,3,12) occ(1,1,7) occ(1,9,7) occ(1,3,10) occ(1,5,11) occ(1,4,3) occ(2,8,2) occ(3,1,4) coverage(115) occ(7,1,6) occ(35,1,12) occ(43,1,10) occ(51,1,8) occ(73,1,3) occ(83,1,2) occ(89,1,5) occ(93,1,9) occ(9,2,8) occ(37,2,10) occ(41,2,12) occ(49,2,6) occ(55,2,9) occ(71,2,5) occ(75,2,1) occ(81,2,4) occ(87,2,3) occ(91,2,7) occ(5,3,5) occ(33,3,11) occ(45,3,9) occ(53,3,7) occ(59,3,6) occ(67,3,4) occ(77,3,3) occ(85,3,1) occ(95,3,8) occ(107,3,2) occ(11,4,9) occ(29,4,12) occ(39,4,11) occ(47,4,7) occ(57,4,8) occ(61,4,4) occ(69,4,6) occ(78,4,10) occ(79,4,5) occ(130,4,2) occ(31,5,10) occ(32,5,6) occ(64,5,2) occ(65,5,5) occ(76,5,8) occ(80,5,12) occ(97,5,7) occ(98,5,9) occ(105,5,3) occ(109,5,1) occ(128,5,4) occ(13,6,10) occ(27,6,11) occ(30,6,4) occ(34,6,8) occ(63,6,3) occ(70,6,2) occ(74,6,6) occ(99,6,9) occ(100,6,7) occ(103,6,5) occ(132,6,1) occ(25,7,9) occ(52,7,6) occ(62,7,3) occ(66,7,1) occ(72,7,4) occ(82,7,11) occ(88,7,10) occ(92,7,12) occ(96,7,8) occ(101,7,7) occ(111,7,2) occ(126,7,5) occ(15,8,9) occ(23,8,11) occ(28,8,5) occ(36,8,7) occ(46,8,8) occ(54,8,4) occ(68,8,3) occ(86,8,12) occ(94,8,10) occ(102,8,6) occ(6,9,3) occ(50,9,5) occ(60,9,2) occ(84,9,10) occ(90,9,11) occ(104,9,4) occ(113,9,1) occ(114,9,9) occ(120,9,8) occ(124,9,6) occ(4,10,1) occ(12,10,5) occ(17,10,10) occ(18,10,4) occ(21,10,12) occ(26,10,6) occ(38,10,8) occ(44,10,9) occ(48,10,7) occ(56,10,3) occ(106,10,2) occ(116,10,11) occ(8,11,2) occ(14,11,3) occ(22,11,5) occ(40,11,6) occ(58,11,1) occ(108,11,4) occ(112,11,8) occ(118,11,9) occ(122,11,7) occ(10,12,4) occ(16,12,5) occ(19,12,11) occ(20,12,3) occ(24,12,7) occ(42,12,8) occ(110,12,6)
Optimization: -115
Answer: 20
occ(1,3,12) occ(1,1,7) occ(1,9,7) occ(1,3,10) occ(1,5,11) occ(1,4,3) occ(2,8,2) occ(3,1,4) coverage(121) occ(30,1,5) occ(36,1,6) occ(85,1,3) occ(111,1,10) occ(115,1,12) occ(119,1,8) occ(5,2,6) occ(28,2,7) occ(34,2,8) occ(38,2,4) occ(83,2,1) occ(91,2,3) occ(107,2,11) occ(117,2,10) occ(120,2,9) occ(7,3,8) occ(32,3,6) occ(40,3,2) occ(81,3,3) occ(87,3,4) occ(109,3,9) occ(113,3,11) occ(118,3,7) occ(9,4,10) occ(26,4,6) occ(44,4,5) occ(55,4,11) occ(59,4,7) occ(89,4,2) occ(90,4,8) occ(93,4,4) occ(105,4,12) occ(116,4,9) occ(11,5,8) occ(14,5,1) occ(20,5,2) occ(42,5,3) occ(57,5,9) occ(61,5,5) occ(79,5,4) occ(88,5,10) occ(95,5,6) occ(108,5,12) occ(114,5,7) occ(16,6,3) occ(24,6,5) occ(46,6,4) occ(53,6,12) occ(73,6,6) occ(77,6,2) occ(92,6,7) occ(97,6,8) occ(103,6,11) occ(110,6,10) occ(12,7,2) occ(13,7,7) occ(18,7,1) occ(22,7,3) occ(63,7,6) occ(69,7,5) occ(75,7,4) occ(86,7,9) occ(99,7,10) occ(106,7,11) occ(112,7,8) occ(15,8,9) occ(27,8,5) occ(48,8,3) occ(51,8,11) occ(58,8,4) occ(65,8,8) occ(71,8,7) occ(94,8,6) occ(101,8,12) occ(102,8,10) occ(10,9,1) occ(49,9,9) occ(52,9,4) occ(56,9,2) occ(66,9,5) occ(67,9,6) occ(70,9,3) occ(84,9,10) occ(96,9,8) occ(104,9,12) occ(4,10,1) occ(8,10,3) occ(17,10,10) occ(25,10,6) occ(29,10,4) occ(41,10,12) occ(47,10,11) occ(50,10,2) occ(60,10,5) occ(64,10,7) occ(78,10,8) occ(100,10,9) occ(19,11,12) occ(23,11,8) occ(33,11,5) occ(37,11,9) occ(43,11,10) occ(54,11,3) occ(68,11,4) occ(72,11,2) occ(76,11,6) occ(82,11,11) occ(98,11,7) occ(6,12,2) occ(21,12,10) occ(31,12,3) occ(35,12,7) occ(39,12,11) occ(45,12,12) occ(62,12,6) occ(74,12,4) occ(80,12,9)
Optimization: -121
Answer: 21
occ(1,3,12) occ(1,1,7) occ(1,9,7) occ(1,3,10) occ(1,5,11) occ(1,4,3) occ(2,8,2) occ(3,1,4) coverage(124) occ(30,1,9) occ(75,1,6) occ(79,1,2) occ(85,1,3) occ(93,1,1) occ(107,1,10) occ(111,1,12) occ(119,1,8) occ(24,2,5) occ(28,2,7) occ(32,2,11) occ(73,2,8) occ(77,2,4) occ(83,2,1) occ(91,2,3) occ(113,2,10) occ(121,2,6) occ(122,2,2) occ(5,3,5) occ(71,3,6) occ(81,3,3) occ(87,3,4) occ(95,3,2) occ(105,3,9) occ(109,3,11) occ(117,3,7) occ(22,4,4) occ(26,4,6) occ(34,4,10) occ(44,4,5) occ(55,4,11) occ(89,4,2) occ(90,4,8) occ(115,4,9) occ(120,4,1) occ(123,4,7) occ(7,5,4) occ(11,5,6) occ(14,5,1) occ(20,5,2) occ(36,5,12) occ(42,5,7) occ(57,5,9) occ(69,5,5) occ(88,5,10) occ(97,5,3) occ(103,5,8) occ(13,6,8) occ(16,6,3) occ(38,6,10) occ(46,6,4) occ(53,6,12) occ(59,6,11) occ(92,6,7) occ(101,6,6) occ(108,6,9) occ(112,6,5) occ(118,6,2) occ(9,7,5) occ(12,7,2) occ(18,7,1) occ(40,7,8) occ(63,7,10) occ(67,7,6) occ(86,7,9) occ(99,7,4) occ(106,7,11) occ(110,7,7) occ(114,7,3) occ(15,8,9) occ(27,8,5) occ(48,8,3) occ(51,8,11) occ(58,8,4) occ(61,8,12) occ(65,8,8) occ(94,8,6) occ(102,8,10) occ(116,8,1) occ(10,9,1) occ(49,9,9) occ(52,9,4) occ(56,9,2) occ(66,9,5) occ(70,9,3) occ(84,9,10) occ(96,9,8) occ(104,9,12) occ(4,10,1) occ(8,10,3) occ(17,10,10) occ(25,10,6) occ(29,10,4) occ(41,10,12) occ(47,10,11) occ(50,10,2) occ(60,10,5) occ(64,10,7) occ(78,10,8) occ(100,10,9) occ(19,11,12) occ(23,11,8) occ(33,11,5) occ(37,11,9) occ(43,11,10) occ(54,11,3) occ(68,11,4) occ(72,11,2) occ(76,11,6) occ(82,11,11) occ(98,11,7) occ(6,12,2) occ(21,12,10) occ(31,12,3) occ(35,12,7) occ(39,12,11) occ(45,12,12) occ(62,12,6) occ(74,12,4) occ(80,12,9)
Optimization: -124
Answer: 22
occ(1,3,12) occ(1,1,7) occ(1,9,7) occ(1,3,10) occ(1,5,11) occ(1,4,3) occ(2,8,2) occ(3,1,4) coverage(128) occ(22,1,3) occ(23,1,8) occ(27,1,12) occ(28,1,2) occ(31,1,10) occ(37,1,9) occ(89,1,1) occ(5,2,2) occ(14,2,8) occ(20,2,5) occ(21,2,6) occ(24,2,1) occ(25,2,10) occ(35,2,7) occ(39,2,11) occ(87,2,3) occ(127,2,9) occ(16,3,6) occ(17,3,5) occ(26,3,3) occ(29,3,11) occ(30,3,1) occ(33,3,9) occ(79,3,8) occ(83,3,4) occ(91,3,2) occ(106,3,7) occ(7,4,1) occ(12,4,9) occ(18,4,4) occ(19,4,7) occ(41,4,12) occ(70,4,10) occ(81,4,6) occ(85,4,2) occ(108,4,5) occ(116,4,11) occ(125,4,8) occ(6,5,3) occ(10,5,7) occ(15,5,4) occ(32,5,2) occ(46,5,5) occ(68,5,12) occ(77,5,9) occ(80,5,6) occ(93,5,1) occ(104,5,8) occ(123,5,10) occ(4,6,1) occ(8,6,5) occ(9,6,2) occ(43,6,11) occ(44,6,3) occ(48,6,7) occ(72,6,9) occ(78,6,4) occ(110,6,6) occ(114,6,10) occ(118,6,12) occ(121,6,8) occ(13,7,3) occ(34,7,1) occ(50,7,5) occ(66,7,11) occ(75,7,10) occ(76,7,6) occ(82,7,7) occ(95,7,2) occ(102,7,9) occ(112,7,8) occ(11,8,1) occ(42,8,4) occ(45,8,10) occ(54,8,6) occ(62,8,12) occ(74,8,8) occ(88,8,5) occ(100,8,7) occ(119,8,9) occ(120,8,11) occ(36,9,2) occ(47,9,8) occ(52,9,4) occ(58,9,9) occ(64,9,10) occ(73,9,11) occ(84,9,6) occ(90,9,3) occ(97,9,1) occ(98,9,5) occ(111,9,12) occ(40,10,3) occ(56,10,7) occ(57,10,2) occ(60,10,11) occ(65,10,6) occ(86,10,4) occ(92,10,1) occ(103,10,5) occ(107,10,9) occ(113,10,10) occ(117,10,8) occ(122,10,12) occ(38,11,1) occ(49,11,9) occ(53,11,5) occ(61,11,3) occ(67,11,8) occ(71,11,12) occ(96,11,4) occ(99,11,2) occ(105,11,7) occ(109,11,11) occ(124,11,10) occ(51,12,7) occ(55,12,3) occ(59,12,1) occ(63,12,5) occ(69,12,10) occ(94,12,2) occ(101,12,4) occ(115,12,9) occ(126,12,12)
Optimization: -128
Answer: 23
occ(1,3,12) occ(1,1,7) occ(1,9,7) occ(1,3,10) occ(1,5,11) occ(1,4,3) occ(2,8,2) occ(3,1,4) coverage(129) occ(7,1,8) occ(19,1,10) occ(60,1,2) occ(70,1,5) occ(74,1,9) occ(105,1,3) occ(5,2,6) occ(9,2,10) occ(21,2,12) occ(58,2,4) occ(66,2,2) occ(72,2,7) occ(76,2,11) occ(104,2,3) occ(107,2,1) occ(115,2,5) occ(119,2,9) occ(11,3,8) occ(17,3,11) occ(56,3,6) occ(62,3,3) occ(68,3,4) occ(102,3,1) occ(103,3,2) occ(114,3,5) occ(117,3,7) occ(118,3,9) occ(13,4,10) occ(23,4,11) occ(64,4,1) occ(75,4,5) occ(78,4,12) occ(79,4,9) occ(106,4,4) occ(109,4,2) occ(113,4,6) occ(116,4,7) occ(121,4,8) occ(6,5,1) occ(15,5,12) occ(50,5,9) occ(54,5,5) occ(77,5,7) occ(100,5,2) occ(101,5,3) occ(111,5,4) occ(112,5,6) occ(120,5,8) occ(123,5,10) occ(4,6,3) occ(25,6,12) occ(46,6,10) occ(52,6,7) occ(73,6,4) occ(80,6,11) occ(81,6,8) occ(97,6,6) occ(108,6,5) occ(127,6,9) occ(8,7,2) occ(14,7,3) occ(48,7,8) occ(67,7,10) occ(71,7,6) occ(85,7,5) occ(98,7,1) occ(99,7,4) occ(110,7,7) occ(122,7,9) occ(125,7,11) occ(10,8,4) occ(16,8,1) occ(27,8,11) occ(44,8,9) occ(69,8,8) occ(82,8,10) occ(83,8,7) occ(86,8,6) occ(95,8,5) occ(96,8,3) occ(12,9,2) occ(29,9,9) occ(36,9,6) occ(37,9,5) occ(47,9,12) occ(65,9,11) occ(84,9,8) occ(87,9,4) occ(93,9,3) occ(94,9,1) occ(124,9,10) occ(18,10,2) occ(24,10,3) occ(30,10,6) occ(34,10,4) occ(42,10,8) occ(43,10,9) occ(49,10,10) occ(53,10,12) occ(59,10,11) occ(88,10,5) occ(91,10,1) occ(128,10,7) occ(22,11,1) occ(26,11,5) occ(31,11,8) occ(35,11,4) occ(38,11,7) occ(39,11,6) occ(45,11,11) occ(55,11,10) occ(63,11,12) occ(89,11,3) occ(92,11,2) occ(126,11,9) occ(20,12,3) occ(28,12,7) occ(32,12,5) occ(33,12,6) occ(40,12,9) occ(41,12,8) occ(51,12,11) occ(57,12,12) occ(61,12,10) occ(90,12,4)
Optimization: -129
Answer: 24
occ(1,3,12) occ(1,1,7) occ(1,9,7) occ(1,3,10) occ(1,5,11) occ(1,4,3) occ(2,8,2) occ(3,1,4) coverage(130) occ(13,1,3) occ(65,1,1) occ(71,1,2) occ(81,1,5) occ(87,1,6) occ(103,1,8) occ(121,1,9) occ(127,1,10) occ(11,2,1) occ(15,2,5) occ(67,2,3) occ(77,2,2) occ(85,2,4) occ(89,2,8) occ(101,2,10) occ(105,2,6) occ(108,2,9) occ(119,2,11) occ(123,2,7) occ(129,2,12) occ(5,3,5) occ(63,3,2) occ(69,3,1) occ(73,3,3) occ(79,3,4) occ(83,3,6) occ(110,3,11) occ(111,3,8) occ(125,3,9) occ(9,4,2) occ(17,4,4) occ(21,4,6) occ(44,4,7) occ(75,4,1) occ(91,4,9) occ(99,4,11) occ(106,4,8) occ(107,4,5) occ(113,4,10) occ(117,4,12) occ(7,5,4) occ(8,5,2) occ(12,5,6) occ(23,5,8) occ(42,5,5) occ(46,5,9) occ(61,5,1) occ(104,5,10) occ(109,5,7) occ(112,5,12) occ(4,6,3) occ(10,6,4) occ(18,6,2) occ(19,6,5) occ(25,6,10) occ(39,6,9) occ(50,6,6) occ(93,6,8) occ(97,6,12) occ(115,6,11) occ(6,7,1) occ(14,7,5) occ(20,7,4) occ(35,7,12) occ(40,7,6) occ(41,7,7) occ(45,7,3) occ(48,7,8) occ(59,7,2) occ(95,7,10) occ(102,7,9) occ(114,7,11) occ(16,8,3) occ(27,8,9) occ(30,8,6) occ(37,8,10) occ(38,8,4) occ(43,8,5) occ(47,8,1) occ(52,8,7) occ(100,8,11) occ(122,8,12) occ(22,9,5) occ(26,9,3) occ(32,9,4) occ(33,9,11) occ(36,9,6) occ(54,9,9) occ(57,9,1) occ(84,9,8) occ(116,9,12) occ(120,9,10) occ(28,10,5) occ(29,10,10) occ(49,10,2) occ(53,10,4) occ(56,10,7) occ(64,10,9) occ(72,10,3) occ(76,10,1) occ(82,10,6) occ(90,10,8) occ(98,10,12) occ(124,10,11) occ(24,11,4) occ(31,11,12) occ(34,11,5) occ(55,11,2) occ(60,11,8) occ(68,11,6) occ(78,11,3) occ(86,11,7) occ(94,11,9) occ(118,11,11) occ(128,11,10) occ(51,12,3) occ(58,12,6) occ(62,12,10) occ(66,12,8) occ(70,12,4) occ(74,12,2) occ(80,12,5) occ(88,12,9) occ(92,12,7) occ(96,12,11) occ(126,12,12)
Optimization: -130
Answer: 25
occ(1,3,12) occ(1,1,7) occ(1,9,7) occ(1,3,10) occ(1,5,11) occ(1,4,3) occ(2,8,2) occ(3,1,4) coverage(131) occ(13,1,3) occ(55,1,8) occ(74,1,5) occ(92,1,10) occ(96,1,6) occ(100,1,2) occ(5,2,2) occ(11,2,1) occ(15,2,5) occ(19,2,9) occ(53,2,6) occ(57,2,10) occ(67,2,7) occ(72,2,3) occ(90,2,12) occ(94,2,8) occ(98,2,4) occ(9,3,3) occ(17,3,7) occ(21,3,11) occ(47,3,2) occ(65,3,9) occ(70,3,5) occ(76,3,4) occ(80,3,8) occ(102,3,1) occ(103,3,6) occ(6,4,2) occ(7,4,1) occ(25,4,10) occ(51,4,5) occ(59,4,9) occ(63,4,7) occ(69,4,8) occ(77,4,12) occ(78,4,6) occ(88,4,11) occ(101,4,4) occ(8,5,4) occ(23,5,12) occ(27,5,8) occ(45,5,1) occ(49,5,3) occ(68,5,6) occ(75,5,10) occ(82,5,9) occ(85,5,5) occ(104,5,2) occ(105,5,7) occ(4,6,1) occ(31,6,5) occ(37,6,2) occ(50,6,6) occ(61,6,8) occ(66,6,4) occ(71,6,9) occ(79,6,11) occ(83,6,7) occ(86,6,12) occ(99,6,3) occ(109,6,10) occ(10,7,5) occ(29,7,7) occ(33,7,3) occ(43,7,2) occ(64,7,6) occ(73,7,11) occ(81,7,9) occ(84,7,10) occ(87,7,4) occ(106,7,1) occ(107,7,8) occ(111,7,12) occ(24,8,11) occ(30,8,12) occ(35,8,1) occ(39,8,3) occ(48,8,7) occ(52,8,5) occ(62,8,8) occ(97,8,4) occ(125,8,6) occ(130,8,10) occ(12,9,4) occ(28,9,10) occ(38,9,9) occ(41,9,1) occ(46,9,5) occ(60,9,6) occ(89,9,3) occ(108,9,2) occ(113,9,11) occ(123,9,8) occ(128,9,12) occ(22,10,10) occ(26,10,12) occ(32,10,11) occ(40,10,7) occ(54,10,4) occ(58,10,8) occ(91,10,1) occ(95,10,3) occ(114,10,2) occ(121,10,6) occ(127,10,5) occ(14,11,5) occ(18,11,9) occ(36,11,10) occ(44,11,4) occ(56,11,6) occ(110,11,1) occ(115,11,12) occ(118,11,3) occ(119,11,8) occ(122,11,7) occ(126,11,11) occ(16,12,7) occ(20,12,11) occ(34,12,12) occ(42,12,6) occ(93,12,2) occ(112,12,3) occ(116,12,1) occ(117,12,10) occ(120,12,5) occ(124,12,9) occ(129,12,4)
Optimization: -131
Answer: 26
occ(1,3,12) occ(1,1,7) occ(1,9,7) occ(1,3,10) occ(1,5,11) occ(1,4,3) occ(2,8,2) occ(3,1,4) coverage(132) occ(13,1,3) occ(55,1,8) occ(74,1,5) occ(92,1,10) occ(96,1,6) occ(100,1,2) occ(5,2,2) occ(11,2,1) occ(15,2,5) occ(19,2,9) occ(53,2,6) occ(57,2,10) occ(67,2,7) occ(72,2,3) occ(90,2,12) occ(94,2,8) occ(98,2,4) occ(9,3,3) occ(17,3,7) occ(21,3,11) occ(47,3,2) occ(65,3,9) occ(70,3,5) occ(76,3,4) occ(80,3,8) occ(102,3,1) occ(103,3,6) occ(6,4,2) occ(7,4,1) occ(25,4,10) occ(51,4,5) occ(59,4,9) occ(63,4,7) occ(69,4,8) occ(77,4,12) occ(78,4,6) occ(88,4,11) occ(101,4,4) occ(8,5,4) occ(23,5,12) occ(27,5,8) occ(45,5,1) occ(49,5,3) occ(68,5,6) occ(75,5,10) occ(82,5,9) occ(85,5,5) occ(104,5,2) occ(105,5,7) occ(4,6,1) occ(31,6,5) occ(37,6,2) occ(50,6,6) occ(61,6,8) occ(66,6,4) occ(71,6,9) occ(79,6,11) occ(83,6,7) occ(86,6,12) occ(99,6,3) occ(109,6,10) occ(10,7,5) occ(29,7,7) occ(33,7,3) occ(43,7,2) occ(64,7,6) occ(73,7,11) occ(81,7,9) occ(84,7,10) occ(87,7,4) occ(106,7,1) occ(107,7,8) occ(111,7,12) occ(24,8,11) occ(30,8,12) occ(35,8,1) occ(39,8,3) occ(48,8,7) occ(52,8,5) occ(62,8,8) occ(97,8,4) occ(125,8,6) occ(130,8,10) occ(12,9,4) occ(28,9,10) occ(38,9,9) occ(41,9,1) occ(46,9,5) occ(60,9,6) occ(89,9,3) occ(108,9,2) occ(113,9,11) occ(123,9,8) occ(128,9,12) occ(22,10,10) occ(26,10,12) occ(32,10,11) occ(40,10,7) occ(54,10,4) occ(58,10,8) occ(91,10,1) occ(95,10,3) occ(114,10,2) occ(121,10,6) occ(127,10,5) occ(14,11,5) occ(18,11,9) occ(36,11,10) occ(44,11,4) occ(56,11,6) occ(110,11,1) occ(115,11,12) occ(118,11,3) occ(119,11,8) occ(122,11,7) occ(126,11,11) occ(131,11,2) occ(16,12,7) occ(20,12,11) occ(34,12,12) occ(42,12,6) occ(93,12,2) occ(112,12,3) occ(116,12,1) occ(117,12,10) occ(120,12,5) occ(124,12,9) occ(129,12,4)
Optimization: -132
Answer: 27
occ(1,3,12) occ(1,1,7) occ(1,9,7) occ(1,3,10) occ(1,5,11) occ(1,4,3) occ(2,8,2) occ(3,1,4) coverage(133) occ(13,1,3) occ(55,1,8) occ(74,1,5) occ(92,1,10) occ(96,1,6) occ(100,1,2) occ(5,2,2) occ(11,2,1) occ(15,2,5) occ(19,2,9) occ(53,2,6) occ(57,2,10) occ(67,2,7) occ(72,2,3) occ(90,2,12) occ(94,2,8) occ(98,2,4) occ(9,3,3) occ(17,3,7) occ(21,3,11) occ(47,3,2) occ(65,3,9) occ(70,3,5) occ(76,3,4) occ(80,3,8) occ(102,3,1) occ(103,3,6) occ(6,4,2) occ(7,4,1) occ(25,4,10) occ(51,4,5) occ(59,4,9) occ(63,4,7) occ(69,4,8) occ(77,4,12) occ(78,4,6) occ(88,4,11) occ(101,4,4) occ(8,5,4) occ(23,5,12) occ(27,5,8) occ(45,5,1) occ(49,5,3) occ(68,5,6) occ(75,5,10) occ(82,5,9) occ(85,5,5) occ(104,5,2) occ(105,5,7) occ(4,6,1) occ(31,6,5) occ(37,6,2) occ(50,6,6) occ(61,6,8) occ(66,6,4) occ(71,6,9) occ(79,6,11) occ(83,6,7) occ(86,6,12) occ(99,6,3) occ(109,6,10) occ(10,7,5) occ(29,7,7) occ(33,7,3) occ(43,7,2) occ(64,7,6) occ(73,7,11) occ(81,7,9) occ(84,7,10) occ(87,7,4) occ(106,7,1) occ(107,7,8) occ(111,7,12) occ(24,8,11) occ(30,8,12) occ(35,8,1) occ(39,8,3) occ(48,8,7) occ(52,8,5) occ(62,8,8) occ(97,8,4) occ(125,8,6) occ(130,8,10) occ(12,9,4) occ(28,9,10) occ(38,9,9) occ(41,9,1) occ(46,9,5) occ(60,9,6) occ(89,9,3) occ(108,9,2) occ(113,9,11) occ(123,9,8) occ(128,9,12) occ(22,10,10) occ(26,10,12) occ(32,10,11) occ(40,10,7) occ(54,10,4) occ(58,10,8) occ(91,10,1) occ(95,10,3) occ(114,10,2) occ(121,10,6) occ(127,10,5) occ(132,10,9) occ(14,11,5) occ(18,11,9) occ(36,11,10) occ(44,11,4) occ(56,11,6) occ(110,11,1) occ(115,11,12) occ(118,11,3) occ(119,11,8) occ(122,11,7) occ(126,11,11) occ(131,11,2) occ(16,12,7) occ(20,12,11) occ(34,12,12) occ(42,12,6) occ(93,12,2) occ(112,12,3) occ(116,12,1) occ(117,12,10) occ(120,12,5) occ(124,12,9) occ(129,12,4)
Optimization: -133
Answer: 28
occ(1,3,12) occ(1,1,7) occ(1,9,7) occ(1,3,10) occ(1,5,11) occ(1,4,3) occ(2,8,2) occ(3,1,4) coverage(134) occ(7,1,8) occ(13,1,5) occ(97,1,3) occ(103,1,2) occ(107,1,6) occ(111,1,10) occ(119,1,12) occ(126,1,9) occ(5,2,6) occ(11,2,7) occ(15,2,3) occ(93,2,2) occ(99,2,1) occ(105,2,4) occ(109,2,8) occ(112,2,5) occ(113,2,12) occ(117,2,10) occ(123,2,9) occ(124,2,11) occ(9,3,9) occ(14,3,5) occ(17,3,1) occ(72,3,6) occ(95,3,4) occ(101,3,3) occ(108,3,2) occ(121,3,11) occ(125,3,7) occ(128,3,8) occ(16,4,7) occ(67,4,9) occ(70,4,8) occ(91,4,1) occ(110,4,4) occ(114,4,6) occ(115,4,11) occ(122,4,12) occ(127,4,5) occ(130,4,10) occ(133,4,2) occ(12,5,4) occ(19,5,2) occ(24,5,8) occ(28,5,10) occ(68,5,6) occ(71,5,12) occ(74,5,7) occ(106,5,1) occ(118,5,9) occ(129,5,3) occ(4,6,3) occ(18,6,6) occ(30,6,12) occ(65,6,8) occ(66,6,4) occ(69,6,10) occ(76,6,5) occ(89,6,2) occ(116,6,7) occ(120,6,11) occ(131,6,1) occ(132,6,9) occ(6,7,5) occ(10,7,3) occ(21,7,1) occ(22,7,7) occ(26,7,9) occ(51,7,12) occ(63,7,10) occ(64,7,6) occ(73,7,11) occ(87,7,4) occ(104,7,2) occ(20,8,5) occ(32,8,11) occ(42,8,12) occ(49,8,10) occ(55,8,9) occ(59,8,7) occ(60,8,3) occ(78,8,4) occ(81,8,8) occ(85,8,6) occ(100,8,1) occ(8,9,4) occ(23,9,2) occ(40,9,10) occ(47,9,8) occ(53,9,11) occ(58,9,1) occ(61,9,9) occ(62,9,5) occ(75,9,12) occ(102,9,3) occ(25,10,4) occ(31,10,1) occ(34,10,12) occ(35,10,3) occ(44,10,11) occ(45,10,6) occ(57,10,8) occ(79,10,9) occ(80,10,5) occ(83,10,7) occ(86,10,10) occ(98,10,2) occ(29,11,3) occ(37,11,1) occ(38,11,9) occ(41,11,5) occ(48,11,10) occ(52,11,6) occ(56,11,2) occ(77,11,11) occ(82,11,7) occ(88,11,12) occ(92,11,8) occ(96,11,4) occ(27,12,5) occ(33,12,2) occ(36,12,11) occ(39,12,3) occ(43,12,7) occ(46,12,12) occ(50,12,8) occ(54,12,4) occ(84,12,9) occ(90,12,10) occ(94,12,6)
Optimization: -134
*** Info : (clingo): INTERRUPTED by signal!
SATISFIABLE

TIME LIMIT   : 1
Models       : 28+
  Optimum    : unknown
Optimization : -134
Calls        : 1
Time         : 300.000s (Solving: 294.92s 1st Model: 0.01s Unsat: 0.00s)
CPU Time     : 300.001s
